prog.mps
NAME          PROG
ROWS
 N   O0
 L   C34
 L   C35
 L   C36
 L   C37
 L   C38
 L   C39
 L   C40
 L   C41
 L   C42
 L   C43
 L   C44
 L   C45
 L   C46
 L   C47
 L   C48
 L   C49
 L   C50
 L   C51
 L   C52
 L   C53
 L   C54
 L   C55
 E   C31
 E   C32
 E   C33
 E   C56
 E   C57
 E   C58
 E   C59
 E   C60
 E   C61
 E   C62
 E   C63
 E   C64
 E   C65
 E   C66
 E   C67
 E   C68
 E   C69
 E   C70
COLUMNS
    V0        C34       1.0
    V0        C44       -1.0
    V0        C45       -0.0
    V0        C46       -0.5
    V0        C56       -5000.0
    V0        C59       -500.0
    V1        C35       1.0
    V1        C47       -1.0
    V1        C48       -1.0
    V1        C49       -1.0
    V1        C57       -1000.0
    V1        C60       -100.0
    V2        C36       1.0
    V2        C50       -1.0
    V2        C51       -1.0
    V2        C52       -1.0
    V2        C58       -0.0
    V2        C61       -0.0
    V3        C37       1.0
    V3        C53       -1.0
    V3        C54       -1.0
    V3        C55       -1.0
    V4        C41       -1.0
    V4        C65       -1.0
    V5        C42       -1.0
    V5        C66       -1.0
    V6        C43       -1.0
    V6        C67       -1.0
    V7        C38       1.0
    V7        C62       -1.0
    V8        C39       1.0
    V8        C63       -1.0
    V9        C40       1.0
    V9        C64       -1.0
    V10       C53       1.0
    V10       C68       -1.0
    V10       C69       1.0
    V11       C54       1.0
    V11       C69       -1.0
    V11       C70       1.0
    V12       C55       1.0
    V12       C70       -1.0
    V13       C31       -10.0
    V13       C44       1.0
    V13       C62       1.0
    V13       C65       1.0
    V14       C31       -10.0
    V14       C45       1.0
    V14       C63       1.0
    V14       C66       1.0
    V15       C31       -10.0
    V15       C46       1.0
    V15       C64       1.0
    V15       C67       1.0
    V16       C32       -50.0
    V16       C47       1.0
    V16       C65       -1.0
    V16       C68       1.0
    V17       C32       -50.0
    V17       C48       1.0
    V17       C66       -1.0
    V17       C69       1.0
    V18       C32       -50.0
    V18       C49       1.0
    V18       C67       -1.0
    V18       C70       1.0
    V19       C33       -0.0
    V19       C50       1.0
    V19       C65       1.0
    V19       C68       -1.0
    V20       C33       -0.0
    V20       C51       1.0
    V20       C66       1.0
    V20       C69       -1.0
    V21       C33       -0.0
    V21       C52       1.0
    V21       C67       1.0
    V21       C70       -1.0
    V22       C56       1.0
    V22       O0        1.0
    V23       C57       1.0
    V23       O0        1.0
    V24       C58       1.0
    V24       O0        1.0
    V25       C59       1.0
    V25       O0        1.0
    V26       C60       1.0
    V26       O0        1.0
    V27       C61       1.0
    V27       O0        1.0
    V28       C31       1.0
    V28       O0        1.0
    V29       C32       1.0
    V29       O0        1.0
    V30       C33       1.0
    V30       O0        1.0
RHS
    RHS0      C34       200.0
    RHS1      C35       200.0
    RHS2      C36       200.0
    RHS3      C37       200.0
    RHS4      C38       200.0
    RHS5      C39       200.0
    RHS6      C40       200.0
    RHS7      C41       -50.0
    RHS8      C42       -100.0
    RHS9     C43       -50.0
    RHS10     C44       0
    RHS11     C45       0
    RHS12     C46       0
    RHS13     C47       0
    RHS14     C48       0
    RHS15     C49       0
    RHS16     C50       0
    RHS17     C51       0
    RHS18     C52       0
    RHS19     C53       0
    RHS20     C54       0
    RHS21     C55       0
    RHS22     C31       0
    RHS23     C32       0
    RHS24     C33       0
    RHS25     C56       0
    RHS26     C57       0
    RHS27     C58       0
    RHS28     C59       0
    RHS29     C60       0
    RHS30     C61       0
    RHS31     C62       0
    RHS32     C63       0
    RHS33     C64       0
    RHS34     C65       0
    RHS35     C66       0
    RHS36     C67       0
    RHS37     C68       0
    RHS38     C69       0
    RHS39     C70       0
ENDATA